param set_len = 16;
param target = 104859126;
param values := [0] 7634803 [1] 31759958 [2] 7453553 [3] 10362151 [4] 13663286 [5] 6555808 [6] 26641814 [7] 61927 [8] 29374762 [9] 16371684 [10] 26264126 [11] 27329447 [12] 16924428 [13] 4532167 [14] 7011563 [15] 13168828 ;
